0_instance_selection/optil_deployment/lite/optil/private/vc-lite_002.in
p td 153 306
1 2
1 3
1 4
1 5
2 6
2 7
2 4
8 9
8 10
8 11
8 12
10 11
10 13
10 14
11 15
11 16
13 17
13 18
13 14
14 19
14 20
21 22
21 23
21 24
21 25
22 26
22 27
22 25
28 29
28 30
28 31
28 32
31 32
31 33
31 34
35 36
35 37
35 38
35 39
37 40
37 41
37 38
42 43
42 44
42 45
42 46
46 47
46 48
46 45
47 49
47 48
47 50
49 50
49 51
49 52
53 43
53 54
53 55
53 56
55 54
55 57
55 58
3 59
3 60
3 5
5 61
5 62
63 54
63 64
63 65
63 25
25 54
43 44
43 56
15 66
15 59
15 16
59 66
59 60
67 68
67 69
67 70
67 23
23 70
23 24
71 72
71 73
71 74
71 75
74 76
74 77
74 75
78 79
78 80
78 81
78 82
79 83
79 84
79 82
32 85
32 86
69 87
69 68
69 27
18 17
18 51
18 77
51 77
51 52
81 88
81 80
81 38
38 88
82 89
82 90
88 91
88 44
92 65
92 93
92 94
92 58
93 65
93 95
93 96
87 66
87 97
87 27
94 98
94 99
94 58
99 98
99 100
99 101
102 103
102 104
102 101
102 105
105 104
105 40
105 16
106 107
106 6
106 108
106 109
6 107
6 7
9 110
9 12
9 33
110 111
110 33
110 112
68 113
68 4
4 113
73 72
73 114
73 115
101 103
101 100
103 116
103 117
64 65
64 118
64 62
118 119
118 80
118 62
16 40
120 109
120 121
120 122
120 96
122 123
122 124
122 109
33 34
52 84
52 91
125 115
125 126
125 127
125 128
126 115
126 129
126 41
130 131
130 132
130 133
130 100
133 131
133 89
133 30
44 91
77 76
76 134
76 135
62 61
61 136
61 137
50 129
50 138
72 139
72 26
26 27
26 139
80 119
45 116
45 140
56 123
56 48
117 141
117 116
117 142
141 142
141 143
141 20
123 48
123 124
19 107
19 20
19 12
41 40
41 129
138 17
138 129
138 144
145 111
145 70
145 146
145 34
34 70
139 83
139 132
132 83
132 100
124 95
124 29
115 114
7 24
7 147
24 147
75 86
75 148
107 12
91 84
119 136
119 149
136 137
136 149
127 128
127 57
127 36
85 90
85 86
85 128
86 148
148 150
148 146
66 97
128 90
151 142
151 152
151 137
151 153
137 153
95 29
95 96
96 121
131 144
131 114
29 30
30 89
89 90
143 121
143 153
143 20
153 121
149 140
149 98
147 152
147 108
152 142
152 108
144 17
144 114
60 113
60 134
112 104
112 111
112 97
109 108
116 140
57 58
57 36
134 113
134 135
135 150
135 39
111 146
98 140
146 150
39 150
39 36
104 97
84 83
