0_instance_selection/optil_deployment/lite/optil/private/vc-lite_002.out
s vc 153 102
2
3
4
5
7
9
10
11
12
14
16
17
18
20
21
23
25
26
27
28
29
31
34
36
37
38
39
41
42
44
45
47
48
50
51
52
53
55
56
58
59
61
63
64
66
67
69
72
73
74
75
76
78
79
81
83
85
86
89
90
91
92
93
96
97
98
99
100
102
103
105
106
107
109
110
112
113
114
116
118
119
121
122
124
125
126
127
131
132
133
134
137
138
141
142
145
146
147
149
150
152
153
